# Solution for model p01_budget_0p080
# Objective value = 8.0000000000062466e-02
Risk 8.0000000000062466e-02
0 0
1 0
3 0.001
4 30.001
5 3.0002000000000002e+01
6 40.002
7 4.0807335735278471e+01
9 8.4052188475997681e+01
c(0,1)_Rl 0.001
c(0,1)_Ru 0
c(0,3)_Rl 0
c(0,3)_Ru 0
c(3,4)_Rl 0
c(3,4)_Ru 0
c(4,5)_Rl 0
c(4,5)_Ru 0
c(3,5)_Rl 0
c(3,5)_Ru 0
c(1,2)_l 0
c(1,2)_u 4.0806335735278473e+01
c(2,7)_Fl 0
c(2,7)_Fu 4.5204804223925144e-02
c(1,7)_Rl 0
c(1,7)_Ru 0
c(5,6)_Rl 0
c(5,6)_Ru 0
c(3,6)_Rl 0
c(3,6)_Ru 0
c(7,8)_l 0
c(7,8)_u 4.3243852740719205e+01
c(1,8)_Fl 0
c(1,8)_Fu 1.7397597888068661e-02
c(0,9)_Rl 0
c(0,9)_Ru 4.8051588475997683e+01
c(8,9)_Fl 0
c(8,9)_Fu 1.7397597888068661e-02
c(6,9)_Rl 0
c(6,9)_Ru 0
Cost 4.8052588475997680e+01
